Starting solution of the Linear programming relaxation problem using Primal Simplex

Coin0506I Presolve 121306 (-121235) rows, 2485 (0) columns and 247440 (-242470) elements
Clp0030I 28 infeas 47.015621, obj 644.71675 - mu 0.050759557, its 105, 92 interior
Clp0030I 39 infeas 0.31294914, obj 1306.7227 - mu 0.0018794197, its 105, 219 interior
Clp0030I 50 infeas 0.014217853, obj 1308.9671 - mu 2.3193432e-05, its 105, 424 interior
Clp0030I 60 infeas 0.00017381892, obj 1308.9543 - mu 8.5875832e-07, its 105, 448 interior
Clp1000I sum of infeasibilities 5.69999e-05 - average 4.69885e-10, 2037 fixed columns
Coin0506I Presolve 2958 (-118348) rows, 448 (-2037) columns and 6670 (-240770) elements
Clp0006I 0  Obj 1308.9543 Primal inf 8.4972539e-06 (19) Dual inf 2.25e+10 (440)
Clp0029I End of values pass after 448 iterations
Clp0014I Perturbing problem by 0.001% of 1 - largest nonzero change 2.9943246e-05 ( 0.0014971623%) - largest zero change 2.9576128e-05
Clp0000I Optimal - objective value 1302.0042
Clp0000I Optimal - objective value 1302.0042
Coin0511I After Postsolve, objective 1302.0042, infeasibilities - dual 0 (0), primal 0 (0)
Clp0006I 0  Obj 1302.0042
Clp0000I Optimal - objective value 1302.0042
Clp0000I Optimal - objective value 1302.0042
Clp0000I Optimal - objective value 1302.0042
Coin0511I After Postsolve, objective 1302.0042, infeasibilities - dual 0 (0), primal 0 (0)
Clp0032I Optimal objective 1302.004167 - 0 iterations time 3.352, Presolve 0.24, Idiot 3.08

Starting MIP optimization
Cbc0045I MIPStart provided solution with cost 1480.62
Cbc0012I Integer solution of 1480.6171 found by Reduced search after 0 iterations and 0 nodes (0.74 seconds)
Cbc0013I At root node, 0 cuts changed objective from 1302.0042 to 1302.0042 in 1 passes
Cbc0014I Cut generator 0 (LazyConstraints) - 0 row cuts average 0.0 elements, 0 column cuts (0 active)  in 0.026 seconds - new frequency is 1
Cbc0014I Cut generator 1 (Probing) - 0 row cuts average 0.0 elements, 0 column cuts (0 active)  in 0.000 seconds - new frequency is -100
Cbc0014I Cut generator 2 (Gomory) - 0 row cuts average 0.0 elements, 0 column cuts (0 active)  in 0.000 seconds - new frequency is -100
Cbc0014I Cut generator 3 (Knapsack) - 0 row cuts average 0.0 elements, 0 column cuts (0 active)  in 0.000 seconds - new frequency is -100
Cbc0014I Cut generator 4 (MixedIntegerRounding2) - 0 row cuts average 0.0 elements, 0 column cuts (0 active)  in 0.000 seconds - new frequency is -100
Cbc0014I Cut generator 5 (FlowCover) - 0 row cuts average 0.0 elements, 0 column cuts (0 active)  in 0.000 seconds - new frequency is -100
Cbc0014I Cut generator 6 (TwoMirCuts) - 0 row cuts average 0.0 elements, 0 column cuts (0 active)  in 0.000 seconds - new frequency is -100
Cbc0014I Cut generator 7 (ZeroHalf) - 0 row cuts average 0.0 elements, 0 column cuts (0 active)  in 0.000 seconds - new frequency is -100
Cbc0010I After 2 nodes, 3 on tree, 1480.6171 best solution, best possible 1302.0042 (2.92 seconds)
Cbc0010I After 4 nodes, 5 on tree, 1480.6171 best solution, best possible 1302.0042 (4.23 seconds)
Cbc0010I After 6 nodes, 7 on tree, 1480.6171 best solution, best possible 1302.0042 (5.36 seconds)
Cbc0010I After 8 nodes, 9 on tree, 1480.6171 best solution, best possible 1302.0042 (6.45 seconds)
Cbc0010I After 10 nodes, 11 on tree, 1480.6171 best solution, best possible 1302.0042 (7.64 seconds)
Cbc0010I After 12 nodes, 13 on tree, 1480.6171 best solution, best possible 1302.0042 (8.68 seconds)
Cbc0010I After 14 nodes, 14 on tree, 1480.6171 best solution, best possible 1302.0042 (9.54 seconds)
Cbc0010I After 16 nodes, 15 on tree, 1480.6171 best solution, best possible 1302.0042 (10.56 seconds)
Cbc0010I After 19 nodes, 18 on tree, 1480.6171 best solution, best possible 1302.0042 (11.26 seconds)
Cbc0010I After 23 nodes, 21 on tree, 1480.6171 best solution, best possible 1302.0042 (12.02 seconds)
Cbc0010I After 27 nodes, 23 on tree, 1480.6171 best solution, best possible 1302.0042 (12.92 seconds)
Cbc0010I After 32 nodes, 24 on tree, 1480.6171 best solution, best possible 1302.0042 (13.68 seconds)
Cbc0010I After 38 nodes, 22 on tree, 1480.6171 best solution, best possible 1302.0042 (14.58 seconds)
Cbc0010I After 41 nodes, 24 on tree, 1480.6171 best solution, best possible 1302.0042 (15.36 seconds)
Cbc0010I After 48 nodes, 25 on tree, 1480.6171 best solution, best possible 1302.0042 (16.17 seconds)
Cbc0010I After 55 nodes, 30 on tree, 1480.6171 best solution, best possible 1302.0042 (16.99 seconds)
Cbc0010I After 62 nodes, 29 on tree, 1480.6171 best solution, best possible 1302.0042 (17.80 seconds)
Cbc0010I After 68 nodes, 34 on tree, 1480.6171 best solution, best possible 1302.0042 (18.55 seconds)
Cbc0004I Integer solution of 1472.2825 found after 6125 iterations and 73 nodes (19.84 seconds)
Cbc0010I After 73 nodes, 33 on tree, 1472.2825 best solution, best possible 1302.0042 (19.85 seconds)
Cbc0010I After 77 nodes, 32 on tree, 1472.2825 best solution, best possible 1302.0042 (20.74 seconds)
Cbc0010I After 80 nodes, 33 on tree, 1472.2825 best solution, best possible 1302.0042 (21.47 seconds)
Cbc0010I After 86 nodes, 34 on tree, 1472.2825 best solution, best possible 1302.0042 (22.19 seconds)
Cbc0010I After 91 nodes, 35 on tree, 1472.2825 best solution, best possible 1302.0042 (23.00 seconds)
Cbc0004I Integer solution of 1462.425 found after 9547 iterations and 93 nodes (23.93 seconds)
Cbc0010I After 93 nodes, 33 on tree, 1462.425 best solution, best possible 1302.0042 (23.94 seconds)
Cbc0010I After 96 nodes, 34 on tree, 1462.425 best solution, best possible 1302.0042 (24.72 seconds)
Cbc0010I After 99 nodes, 36 on tree, 1462.425 best solution, best possible 1302.0042 (25.70 seconds)
Cbc0010I After 104 nodes, 35 on tree, 1462.425 best solution, best possible 1302.0042 (26.55 seconds)
Cbc0010I After 111 nodes, 34 on tree, 1462.425 best solution, best possible 1302.0042 (27.38 seconds)
Cbc0010I After 116 nodes, 33 on tree, 1462.425 best solution, best possible 1302.0042 (28.20 seconds)
Cbc0010I After 119 nodes, 35 on tree, 1462.425 best solution, best possible 1302.0042 (29.10 seconds)
Cbc0010I After 124 nodes, 39 on tree, 1462.425 best solution, best possible 1302.0042 (29.96 seconds)
Cbc0010I After 130 nodes, 43 on tree, 1462.425 best solution, best possible 1302.0042 (30.76 seconds)
Cbc0004I Integer solution of 1421.1216 found after 15462 iterations and 135 nodes (32.16 seconds)
Cbc0010I After 135 nodes, 26 on tree, 1421.1216 best solution, best possible 1302.0042 (32.17 seconds)
Cbc0010I After 146 nodes, 23 on tree, 1421.1216 best solution, best possible 1302.0042 (33.02 seconds)
Cbc0010I After 153 nodes, 28 on tree, 1421.1216 best solution, best possible 1302.0042 (33.84 seconds)
Cbc0010I After 163 nodes, 33 on tree, 1421.1216 best solution, best possible 1302.0042 (34.56 seconds)
Cbc0010I After 173 nodes, 32 on tree, 1421.1216 best solution, best possible 1302.0042 (35.33 seconds)
Cbc0010I After 183 nodes, 35 on tree, 1421.1216 best solution, best possible 1302.0042 (36.04 seconds)
Cbc0010I After 196 nodes, 33 on tree, 1421.1216 best solution, best possible 1302.0042 (36.81 seconds)
Cbc0010I After 206 nodes, 33 on tree, 1421.1216 best solution, best possible 1302.0042 (37.63 seconds)
Cbc0010I After 214 nodes, 31 on tree, 1421.1216 best solution, best possible 1302.0042 (38.43 seconds)
Cbc0010I After 218 nodes, 33 on tree, 1421.1216 best solution, best possible 1302.0042 (39.17 seconds)
Cbc0010I After 227 nodes, 30 on tree, 1421.1216 best solution, best possible 1302.0042 (40.04 seconds)
Cbc0010I After 231 nodes, 31 on tree, 1421.1216 best solution, best possible 1302.0042 (40.95 seconds)
Cbc0010I After 236 nodes, 32 on tree, 1421.1216 best solution, best possible 1302.0042 (41.69 seconds)
Cbc0010I After 245 nodes, 31 on tree, 1421.1216 best solution, best possible 1302.0042 (42.54 seconds)
Cbc0010I After 257 nodes, 35 on tree, 1421.1216 best solution, best possible 1302.0042 (43.29 seconds)
Cbc0010I After 266 nodes, 38 on tree, 1421.1216 best solution, best possible 1302.0042 (44.09 seconds)
Cbc0004I Integer solution of 1418.9307 found after 28993 iterations and 273 nodes (45.34 seconds)
Cbc0010I After 273 nodes, 36 on tree, 1418.9307 best solution, best possible 1302.0042 (45.35 seconds)
Cbc0010I After 287 nodes, 28 on tree, 1418.9307 best solution, best possible 1302.0042 (46.10 seconds)
Cbc0010I After 295 nodes, 27 on tree, 1418.9307 best solution, best possible 1302.0042 (46.95 seconds)
Cbc0010I After 298 nodes, 27 on tree, 1418.9307 best solution, best possible 1302.0042 (47.82 seconds)
Cbc0004I Integer solution of 1417.9971 found after 31816 iterations and 299 nodes (48.65 seconds)
Cbc0010I After 299 nodes, 27 on tree, 1417.9971 best solution, best possible 1302.0042 (48.66 seconds)
Cbc0010I After 305 nodes, 28 on tree, 1417.9971 best solution, best possible 1302.0042 (49.42 seconds)
Cbc0010I After 314 nodes, 27 on tree, 1417.9971 best solution, best possible 1302.0042 (50.38 seconds)
Cbc0010I After 317 nodes, 27 on tree, 1417.9971 best solution, best possible 1302.0042 (51.17 seconds)
Cbc0010I After 328 nodes, 29 on tree, 1417.9971 best solution, best possible 1302.0042 (51.92 seconds)
Cbc0010I After 336 nodes, 29 on tree, 1417.9971 best solution, best possible 1302.0042 (52.73 seconds)
Cbc0010I After 344 nodes, 27 on tree, 1417.9971 best solution, best possible 1302.0042 (53.48 seconds)
Cbc0010I After 355 nodes, 28 on tree, 1417.9971 best solution, best possible 1302.0042 (54.19 seconds)
Cbc0010I After 366 nodes, 26 on tree, 1417.9971 best solution, best possible 1302.0042 (55.18 seconds)
Cbc0010I After 373 nodes, 23 on tree, 1417.9971 best solution, best possible 1302.0042 (55.94 seconds)
Cbc0010I After 381 nodes, 24 on tree, 1417.9971 best solution, best possible 1302.0042 (56.85 seconds)
Cbc0010I After 392 nodes, 21 on tree, 1417.9971 best solution, best possible 1302.0042 (57.69 seconds)
Cbc0010I After 400 nodes, 19 on tree, 1417.9971 best solution, best possible 1302.0042 (58.44 seconds)
Cbc0010I After 409 nodes, 16 on tree, 1417.9971 best solution, best possible 1302.0042 (59.14 seconds)
Cbc0010I After 415 nodes, 15 on tree, 1417.9971 best solution, best possible 1302.0042 (60.05 seconds)
Cbc0010I After 420 nodes, 19 on tree, 1417.9971 best solution, best possible 1302.0042 (60.89 seconds)
Cbc0010I After 430 nodes, 16 on tree, 1417.9971 best solution, best possible 1302.0042 (61.69 seconds)
Cbc0010I After 439 nodes, 17 on tree, 1417.9971 best solution, best possible 1302.0042 (62.41 seconds)
Cbc0010I After 449 nodes, 15 on tree, 1417.9971 best solution, best possible 1302.0042 (63.13 seconds)
Cbc0010I After 453 nodes, 16 on tree, 1417.9971 best solution, best possible 1302.0042 (63.85 seconds)
Cbc0010I After 464 nodes, 13 on tree, 1417.9971 best solution, best possible 1302.0042 (64.63 seconds)
Cbc0010I After 478 nodes, 6 on tree, 1417.9971 best solution, best possible 1302.0042 (65.46 seconds)
Cbc0010I After 482 nodes, 8 on tree, 1417.9971 best solution, best possible 1302.0042 (66.22 seconds)
Cbc0010I After 491 nodes, 5 on tree, 1417.9971 best solution, best possible 1302.0042 (67.17 seconds)
Cbc0010I After 499 nodes, 9 on tree, 1417.9971 best solution, best possible 1302.0042 (67.90 seconds)
Cbc0010I After 511 nodes, 4 on tree, 1417.9971 best solution, best possible 1302.0042 (68.64 seconds)
Cbc0010I After 516 nodes, 8 on tree, 1417.9971 best solution, best possible 1302.0042 (69.37 seconds)
Cbc0010I After 529 nodes, 3 on tree, 1417.9971 best solution, best possible 1302.0042 (70.20 seconds)
Cbc0010I After 534 nodes, 8 on tree, 1417.9971 best solution, best possible 1302.0042 (70.94 seconds)
Cbc0010I After 541 nodes, 11 on tree, 1417.9971 best solution, best possible 1302.0042 (71.67 seconds)
Cbc0010I After 549 nodes, 15 on tree, 1417.9971 best solution, best possible 1302.0042 (72.41 seconds)
Cbc0010I After 559 nodes, 17 on tree, 1417.9971 best solution, best possible 1302.0042 (73.19 seconds)
Cbc0010I After 569 nodes, 13 on tree, 1417.9971 best solution, best possible 1302.0042 (73.91 seconds)
Cbc0010I After 573 nodes, 13 on tree, 1417.9971 best solution, best possible 1302.0042 (74.61 seconds)
Cbc0010I After 578 nodes, 14 on tree, 1417.9971 best solution, best possible 1302.0042 (75.37 seconds)
Cbc0010I After 584 nodes, 13 on tree, 1417.9971 best solution, best possible 1302.0042 (76.14 seconds)
Cbc0010I After 589 nodes, 14 on tree, 1417.9971 best solution, best possible 1302.0042 (76.89 seconds)
Cbc0010I After 597 nodes, 14 on tree, 1417.9971 best solution, best possible 1302.0042 (77.64 seconds)
Cbc0010I After 604 nodes, 15 on tree, 1417.9971 best solution, best possible 1302.0042 (78.34 seconds)
Cbc0010I After 612 nodes, 14 on tree, 1417.9971 best solution, best possible 1302.0042 (79.12 seconds)
Cbc0010I After 622 nodes, 13 on tree, 1417.9971 best solution, best possible 1302.0042 (79.88 seconds)
Cbc0010I After 633 nodes, 9 on tree, 1417.9971 best solution, best possible 1302.0042 (80.60 seconds)
Cbc0010I After 648 nodes, 4 on tree, 1417.9971 best solution, best possible 1302.0042 (81.35 seconds)
Cbc0010I After 654 nodes, 4 on tree, 1417.9971 best solution, best possible 1302.0042 (82.09 seconds)
Cbc0010I After 660 nodes, 2 on tree, 1417.9971 best solution, best possible 1302.0042 (82.80 seconds)
Cbc0010I After 666 nodes, 7 on tree, 1417.9971 best solution, best possible 1302.0042 (83.61 seconds)
Cbc0010I After 676 nodes, 4 on tree, 1417.9971 best solution, best possible 1302.0042 (84.32 seconds)
Cbc0010I After 683 nodes, 4 on tree, 1417.9971 best solution, best possible 1302.0042 (85.03 seconds)
Cbc0010I After 689 nodes, 1 on tree, 1417.9971 best solution, best possible 1307.3352 (85.78 seconds)
Cbc0010I After 691 nodes, 3 on tree, 1417.9971 best solution, best possible 1307.3352 (86.49 seconds)
Cbc0010I After 695 nodes, 7 on tree, 1417.9971 best solution, best possible 1307.3352 (87.29 seconds)
Cbc0010I After 701 nodes, 11 on tree, 1417.9971 best solution, best possible 1307.3352 (88.03 seconds)
Cbc0010I After 709 nodes, 15 on tree, 1417.9971 best solution, best possible 1307.3352 (88.73 seconds)
Cbc0010I After 717 nodes, 18 on tree, 1417.9971 best solution, best possible 1307.3352 (89.50 seconds)
Cbc0010I After 727 nodes, 21 on tree, 1417.9971 best solution, best possible 1307.3352 (90.22 seconds)
Cbc0010I After 734 nodes, 24 on tree, 1417.9971 best solution, best possible 1307.3352 (90.92 seconds)
Cbc0010I After 745 nodes, 27 on tree, 1417.9971 best solution, best possible 1307.3352 (91.65 seconds)
Cbc0010I After 757 nodes, 29 on tree, 1417.9971 best solution, best possible 1307.3352 (92.53 seconds)
Cbc0010I After 765 nodes, 28 on tree, 1417.9971 best solution, best possible 1307.3352 (93.28 seconds)
Cbc0010I After 769 nodes, 28 on tree, 1417.9971 best solution, best possible 1307.3352 (94.00 seconds)
Cbc0010I After 775 nodes, 28 on tree, 1417.9971 best solution, best possible 1307.3352 (94.83 seconds)
Cbc0010I After 783 nodes, 28 on tree, 1417.9971 best solution, best possible 1307.3352 (95.63 seconds)
Cbc0010I After 787 nodes, 29 on tree, 1417.9971 best solution, best possible 1307.3352 (96.46 seconds)
Cbc0010I After 797 nodes, 34 on tree, 1417.9971 best solution, best possible 1307.3352 (97.32 seconds)
Cbc0010I After 808 nodes, 32 on tree, 1417.9971 best solution, best possible 1307.3352 (98.14 seconds)
Cbc0010I After 815 nodes, 31 on tree, 1417.9971 best solution, best possible 1307.3352 (98.89 seconds)
Cbc0010I After 820 nodes, 33 on tree, 1417.9971 best solution, best possible 1307.3352 (99.70 seconds)
Cbc0010I After 827 nodes, 32 on tree, 1417.9971 best solution, best possible 1307.3352 (100.44 seconds)
Cbc0010I After 835 nodes, 33 on tree, 1417.9971 best solution, best possible 1307.3352 (101.19 seconds)
Cbc0010I After 848 nodes, 33 on tree, 1417.9971 best solution, best possible 1307.3352 (102.10 seconds)
Cbc0010I After 858 nodes, 31 on tree, 1417.9971 best solution, best possible 1307.3352 (102.84 seconds)
Cbc0010I After 869 nodes, 31 on tree, 1417.9971 best solution, best possible 1307.3352 (103.63 seconds)
Cbc0010I After 877 nodes, 31 on tree, 1417.9971 best solution, best possible 1307.3352 (104.41 seconds)
Cbc0010I After 883 nodes, 31 on tree, 1417.9971 best solution, best possible 1307.3352 (105.23 seconds)
Cbc0010I After 891 nodes, 33 on tree, 1417.9971 best solution, best possible 1307.3352 (105.98 seconds)
Cbc0010I After 899 nodes, 37 on tree, 1417.9971 best solution, best possible 1307.3352 (106.73 seconds)
Cbc0010I After 912 nodes, 34 on tree, 1417.9971 best solution, best possible 1307.3352 (107.51 seconds)
Cbc0010I After 918 nodes, 37 on tree, 1417.9971 best solution, best possible 1307.3352 (108.26 seconds)
Cbc0010I After 925 nodes, 39 on tree, 1417.9971 best solution, best possible 1307.3352 (109.01 seconds)
Cbc0010I After 932 nodes, 37 on tree, 1417.9971 best solution, best possible 1307.3352 (109.74 seconds)
Cbc0010I After 936 nodes, 38 on tree, 1417.9971 best solution, best possible 1307.3352 (110.49 seconds)
Cbc0010I After 947 nodes, 43 on tree, 1417.9971 best solution, best possible 1307.3352 (111.19 seconds)
Cbc0010I After 955 nodes, 45 on tree, 1417.9971 best solution, best possible 1307.3352 (111.99 seconds)
Cbc0010I After 964 nodes, 44 on tree, 1417.9971 best solution, best possible 1307.3352 (112.73 seconds)
Cbc0010I After 977 nodes, 41 on tree, 1417.9971 best solution, best possible 1307.3352 (113.45 seconds)
Cbc0010I After 986 nodes, 42 on tree, 1417.9971 best solution, best possible 1307.3352 (114.22 seconds)
Cbc0010I After 995 nodes, 41 on tree, 1417.9971 best solution, best possible 1307.3352 (115.02 seconds)
Cbc0010I After 1004 nodes, 42 on tree, 1417.9971 best solution, best possible 1307.3352 (115.77 seconds)
Cbc0010I After 1013 nodes, 44 on tree, 1417.9971 best solution, best possible 1307.3352 (116.51 seconds)
Cbc0010I After 1023 nodes, 41 on tree, 1417.9971 best solution, best possible 1307.3352 (117.36 seconds)
Cbc0010I After 1031 nodes, 41 on tree, 1417.9971 best solution, best possible 1307.3352 (118.18 seconds)
Cbc0010I After 1048 nodes, 36 on tree, 1417.9971 best solution, best possible 1307.3352 (118.94 seconds)
Cbc0010I After 1058 nodes, 34 on tree, 1417.9971 best solution, best possible 1307.3352 (119.71 seconds)
Cbc0010I After 1070 nodes, 32 on tree, 1417.9971 best solution, best possible 1307.3352 (120.58 seconds)
Cbc0010I After 1083 nodes, 26 on tree, 1417.9971 best solution, best possible 1307.3352 (121.29 seconds)
Cbc0010I After 1098 nodes, 25 on tree, 1417.9971 best solution, best possible 1307.3352 (122.01 seconds)
Cbc0010I After 1113 nodes, 20 on tree, 1417.9971 best solution, best possible 1307.3352 (122.83 seconds)
Cbc0010I After 1122 nodes, 21 on tree, 1417.9971 best solution, best possible 1307.3352 (123.54 seconds)
Cbc0010I After 1130 nodes, 20 on tree, 1417.9971 best solution, best possible 1307.3352 (124.25 seconds)
Cbc0010I After 1149 nodes, 14 on tree, 1417.9971 best solution, best possible 1307.3352 (125.01 seconds)
Cbc0010I After 1168 nodes, 7 on tree, 1417.9971 best solution, best possible 1307.3352 (125.71 seconds)
Cbc0010I After 1177 nodes, 7 on tree, 1417.9971 best solution, best possible 1307.3352 (126.63 seconds)
Cbc0010I After 1185 nodes, 7 on tree, 1417.9971 best solution, best possible 1307.3352 (127.59 seconds)
Cbc0010I After 1190 nodes, 8 on tree, 1417.9971 best solution, best possible 1307.3352 (128.29 seconds)
Cbc0010I After 1200 nodes, 7 on tree, 1417.9971 best solution, best possible 1307.3352 (129.10 seconds)
Cbc0010I After 1206 nodes, 6 on tree, 1417.9971 best solution, best possible 1307.3352 (129.92 seconds)
Cbc0010I After 1212 nodes, 12 on tree, 1417.9971 best solution, best possible 1307.3352 (130.64 seconds)
Cbc0010I After 1218 nodes, 18 on tree, 1417.9971 best solution, best possible 1307.3352 (131.36 seconds)
Cbc0010I After 1233 nodes, 14 on tree, 1417.9971 best solution, best possible 1307.3352 (132.11 seconds)
Cbc0010I After 1238 nodes, 16 on tree, 1417.9971 best solution, best possible 1307.3352 (132.81 seconds)
Cbc0010I After 1247 nodes, 13 on tree, 1417.9971 best solution, best possible 1307.3352 (133.55 seconds)
Cbc0010I After 1258 nodes, 10 on tree, 1417.9971 best solution, best possible 1307.3352 (134.48 seconds)
Cbc0010I After 1270 nodes, 7 on tree, 1417.9971 best solution, best possible 1307.3352 (135.24 seconds)
Cbc0010I After 1274 nodes, 10 on tree, 1417.9971 best solution, best possible 1307.3352 (136.08 seconds)
Cbc0010I After 1288 nodes, 8 on tree, 1417.9971 best solution, best possible 1307.3352 (136.87 seconds)
Cbc0010I After 1299 nodes, 7 on tree, 1417.9971 best solution, best possible 1307.3352 (137.77 seconds)
Cbc0010I After 1305 nodes, 6 on tree, 1417.9971 best solution, best possible 1307.3352 (138.55 seconds)
Cbc0010I After 1311 nodes, 7 on tree, 1417.9971 best solution, best possible 1307.3352 (139.46 seconds)
Cbc0010I After 1319 nodes, 15 on tree, 1417.9971 best solution, best possible 1307.3352 (140.24 seconds)
Cbc0010I After 1329 nodes, 25 on tree, 1417.9971 best solution, best possible 1307.3352 (141.09 seconds)
Cbc0010I After 1344 nodes, 20 on tree, 1417.9971 best solution, best possible 1307.3352 (141.83 seconds)
Cbc0010I After 1357 nodes, 14 on tree, 1417.9971 best solution, best possible 1307.3352 (142.61 seconds)
Cbc0010I After 1362 nodes, 16 on tree, 1417.9971 best solution, best possible 1307.3352 (143.40 seconds)
Cbc0010I After 1374 nodes, 14 on tree, 1417.9971 best solution, best possible 1307.3352 (144.20 seconds)
Cbc0010I After 1385 nodes, 17 on tree, 1417.9971 best solution, best possible 1307.3352 (144.90 seconds)
Cbc0010I After 1400 nodes, 20 on tree, 1417.9971 best solution, best possible 1307.3352 (145.61 seconds)
Cbc0010I After 1415 nodes, 20 on tree, 1417.9971 best solution, best possible 1307.3352 (146.36 seconds)
Cbc0010I After 1430 nodes, 12 on tree, 1417.9971 best solution, best possible 1307.3352 (147.14 seconds)
Cbc0010I After 1439 nodes, 13 on tree, 1417.9971 best solution, best possible 1307.3352 (147.92 seconds)
Cbc0010I After 1448 nodes, 10 on tree, 1417.9971 best solution, best possible 1307.3352 (148.77 seconds)
Cbc0010I After 1457 nodes, 9 on tree, 1417.9971 best solution, best possible 1307.3352 (149.51 seconds)
Cbc0010I After 1465 nodes, 17 on tree, 1417.9971 best solution, best possible 1307.3352 (150.27 seconds)
Cbc0004I Integer solution of 1405.6139 found after 120249 iterations and 1470 nodes (151.37 seconds)
Cbc0010I After 1470 nodes, 21 on tree, 1405.6139 best solution, best possible 1307.3352 (151.37 seconds)
Cbc0010I After 1480 nodes, 21 on tree, 1405.6139 best solution, best possible 1307.3352 (152.13 seconds)
Cbc0010I After 1490 nodes, 25 on tree, 1405.6139 best solution, best possible 1307.3352 (153.00 seconds)
Cbc0010I After 1502 nodes, 28 on tree, 1405.6139 best solution, best possible 1307.3352 (153.74 seconds)
Cbc0010I After 1516 nodes, 32 on tree, 1405.6139 best solution, best possible 1307.3352 (154.46 seconds)
Cbc0010I After 1531 nodes, 33 on tree, 1405.6139 best solution, best possible 1307.3352 (155.22 seconds)
Cbc0004I Integer solution of 1405.21 found after 122943 iterations and 1539 nodes (156.61 seconds)
Cbc0010I After 1539 nodes, 32 on tree, 1405.21 best solution, best possible 1307.3352 (156.62 seconds)
Cbc0010I After 1557 nodes, 30 on tree, 1405.21 best solution, best possible 1307.3352 (157.40 seconds)
Cbc0010I After 1572 nodes, 27 on tree, 1405.21 best solution, best possible 1307.3352 (158.14 seconds)
Cbc0004I Integer solution of 1404.2765 found after 124783 iterations and 1578 nodes (159.51 seconds)
Cbc0010I After 1578 nodes, 27 on tree, 1404.2765 best solution, best possible 1307.3352 (159.52 seconds)
Cbc0010I After 1587 nodes, 25 on tree, 1404.2765 best solution, best possible 1307.3352 (160.31 seconds)
Cbc0010I After 1595 nodes, 25 on tree, 1404.2765 best solution, best possible 1307.3352 (161.09 seconds)
Cbc0010I After 1610 nodes, 23 on tree, 1404.2765 best solution, best possible 1307.3352 (161.80 seconds)
Cbc0010I After 1623 nodes, 21 on tree, 1404.2765 best solution, best possible 1307.3352 (162.56 seconds)
Cbc0010I After 1633 nodes, 21 on tree, 1404.2765 best solution, best possible 1307.3352 (163.27 seconds)
Cbc0010I After 1646 nodes, 17 on tree, 1404.2765 best solution, best possible 1307.3352 (164.11 seconds)
Cbc0010I After 1669 nodes, 8 on tree, 1404.2765 best solution, best possible 1307.3352 (164.93 seconds)
Cbc0010I After 1681 nodes, 7 on tree, 1404.2765 best solution, best possible 1307.3352 (165.87 seconds)
Cbc0010I After 1687 nodes, 8 on tree, 1404.2765 best solution, best possible 1307.3352 (166.58 seconds)
Cbc0010I After 1693 nodes, 7 on tree, 1404.2765 best solution, best possible 1307.3352 (167.31 seconds)
Cbc0010I After 1708 nodes, 5 on tree, 1404.2765 best solution, best possible 1307.3352 (168.10 seconds)
Cbc0010I After 1718 nodes, 3 on tree, 1404.2765 best solution, best possible 1307.3352 (168.90 seconds)
Cbc0010I After 1723 nodes, 6 on tree, 1404.2765 best solution, best possible 1307.3352 (169.61 seconds)
Cbc0010I After 1733 nodes, 6 on tree, 1404.2765 best solution, best possible 1307.3352 (170.32 seconds)
Cbc0010I After 1744 nodes, 3 on tree, 1404.2765 best solution, best possible 1307.3352 (171.17 seconds)
Cbc0010I After 1753 nodes, 8 on tree, 1404.2765 best solution, best possible 1307.3352 (171.89 seconds)
Cbc0010I After 1767 nodes, 9 on tree, 1404.2765 best solution, best possible 1307.3352 (172.60 seconds)
Cbc0010I After 1783 nodes, 7 on tree, 1404.2765 best solution, best possible 1307.3352 (173.40 seconds)
Cbc0010I After 1794 nodes, 5 on tree, 1404.2765 best solution, best possible 1307.3352 (174.26 seconds)
Cbc0010I After 1805 nodes, 4 on tree, 1404.2765 best solution, best possible 1307.3352 (175.05 seconds)
Cbc0010I After 1818 nodes, 3 on tree, 1404.2765 best solution, best possible 1307.3352 (175.80 seconds)
Cbc0001I Search completed - best objective 1404.276459779582, took 138520 iterations and 1826 nodes (176.33 seconds)
Cbc0032I Strong branching done 9934 times (147877 iterations), fathomed 264 nodes andModell wird erstellt...
Suche Startlösung...
None
Suche optimale Lösung...
OptimizationStatus.OPTIMAL
C:\Users\Philip\Documents\programmieren\python\bwinf41-2\weniger-krumme-touren\beispiele\random\70\702.txt
Lösung gefunden!
 fixed 1123 variables
Cbc0035I Maximum depth 34, 213684 variables fixed on reduced cost
Total time (CPU seconds):       176.74   (Wallclock seconds):       176.74

